
List of user-set options:

                                    Name   Value                used
                        file_print_level = 5                     yes
                   hessian_approximation = limited-memory        yes
                           linear_solver = mumps                 yes
                                max_iter = 120                   yes
                      nlp_scaling_method = user-scaling          yes
                             output_file = /Users/marcello/Documents/zhaw/BAZL/DRACONIAN/Dymos/terrain_traj_v5_out/IPOPT.out  yes
                             print_level = 5                     yes
                      print_user_options = yes                   yes
                                      sb = yes                   yes
This is Ipopt version 3.14.19, running with linear solver MUMPS 5.8.2.

Number of nonzeros in equality constraint Jacobian...:     9009
Number of nonzeros in inequality constraint Jacobian.:     8955
Number of nonzeros in Lagrangian Hessian.............:        0

Total number of variables............................:      193
                     variables with only lower bounds:       15
                variables with lower and upper bounds:      122
                     variables with only upper bounds:        0
Total number of equality constraints.................:      147
Total number of inequality constraints...............:      135
        inequality constraints with only lower bounds:       45
   inequality constraints with lower and upper bounds:       45
        inequality constraints with only upper bounds:       45

iter    objective    inf_pr   inf_du lg(mu)  ||d||  lg(rg) alpha_du alpha_pr  ls
   0  5.0200000e-01 2.06e+01 1.09e+00   0.0 0.00e+00    -  0.00e+00 0.00e+00   0
   1  5.0477892e-01 1.72e+01 1.30e+01   0.3 1.06e+01    -  1.21e-01 1.47e-01f  1
   2  5.3624591e-01 1.10e+01 7.58e+01   0.4 8.79e+00    -  1.12e-01 3.73e-01f  1
   3  6.9283942e-01 2.59e+00 2.07e+02   0.7 1.21e+01    -  1.34e-01 6.03e-01f  1
   4  8.7278395e-01 3.13e-01 6.17e+01   0.7 1.31e+01    -  6.81e-01 7.24e-01f  1
   5  9.6788920e-01 7.50e-03 4.89e+01  -0.8 6.27e+00    -  7.78e-01 1.00e+00h  1
   6  9.6854474e-01 4.37e-06 1.04e-01  -1.8 1.12e-01    -  9.89e-01 1.00e+00h  1
   7  9.4036592e-01 4.60e-03 3.93e-02  -2.5 1.22e+00    -  9.35e-01 1.00e+00f  1
   8  8.9725072e-01 2.69e-02 7.65e-03  -2.9 2.86e+00    -  7.80e-01 1.00e+00h  1
   9  8.7564838e-01 2.56e-02 2.61e-02  -2.3 1.37e+01    -  1.00e+00 6.55e-01h  1
iter    objective    inf_pr   inf_du lg(mu)  ||d||  lg(rg) alpha_du alpha_pr  ls
  10  8.8066516e-01 4.46e-03 5.63e-03  -2.4 2.55e+00    -  1.00e+00 1.00e+00h  1
  11  8.5114225e-01 1.41e-02 3.72e-03  -2.6 3.90e+00    -  1.00e+00 1.00e+00h  1
  12  8.3486067e-01 1.68e-02 4.22e-03  -2.6 5.65e+00    -  1.00e+00 1.00e+00h  1
  13  8.1285331e-01 1.74e-02 1.68e-02  -4.3 2.99e+00    -  6.57e-01 1.00e+00h  1
  14  8.1840034e-01 2.77e-06 2.72e-02  -3.4 9.09e-01    -  1.00e+00 1.00e+00h  1
  15  8.9196441e-01 2.75e+00 6.33e-02  -1.4 4.18e+02    -  9.89e-02 5.23e-02f  1
  16  8.8380105e-01 6.71e-01 2.26e-02  -2.4 2.02e+01    -  6.87e-01 7.40e-01h  1
  17  8.7070072e-01 7.21e+00 4.10e-02  -2.4 9.42e+00    -  1.00e+00 1.00e+00h  1
  18  8.7351087e-01 2.75e-01 2.46e-02  -2.4 3.44e+01    -  5.64e-01 7.40e-01h  1
  19  8.6833043e-01 1.35e-02 7.21e-03  -2.4 1.66e+01    -  1.00e+00 1.00e+00h  1
iter    objective    inf_pr   inf_du lg(mu)  ||d||  lg(rg) alpha_du alpha_pr  ls
  20  8.5229628e-01 9.62e-03 5.69e-03  -2.4 3.95e+00    -  1.00e+00 1.00e+00h  1
  21  8.4191619e-01 2.78e-02 3.14e-03  -2.4 3.42e+00    -  1.00e+00 1.00e+00h  1
  22  8.3898071e-01 1.72e-02 3.27e-03  -2.4 1.91e+00    -  1.00e+00 1.00e+00h  1
  23  8.4029143e-01 1.60e-03 2.62e-03  -2.4 5.86e-01    -  1.00e+00 1.00e+00h  1
  24  8.1787113e-01 5.41e-03 3.28e-02  -3.6 4.21e+00    -  7.46e-01 1.00e+00h  1
  25  7.9758583e-01 2.16e-02 5.74e-03  -3.6 8.01e+00    -  9.11e-01 6.17e-01h  1
  26  7.8348490e-01 7.59e-03 2.00e-03  -3.6 3.78e+00    -  1.00e+00 1.00e+00h  1
  27  7.8396440e-01 1.93e-02 1.13e-03  -4.3 2.33e+00    -  9.51e-01 1.00e+00h  1
  28  7.8613976e-01 3.43e-03 3.31e-04  -5.0 1.48e+00    -  1.00e+00 1.00e+00h  1
  29  7.8651254e-01 4.69e-04 1.68e-04  -4.8 3.63e-01    -  1.00e+00 1.00e+00h  1
iter    objective    inf_pr   inf_du lg(mu)  ||d||  lg(rg) alpha_du alpha_pr  ls
  30  7.8634159e-01 9.93e-05 5.03e-05  -5.8 7.37e-01    -  1.00e+00 1.00e+00h  1
  31  7.8633542e-01 1.71e-05 3.22e-05  -7.2 1.43e-01    -  1.00e+00 1.00e+00h  1
  32  7.8633936e-01 1.36e-06 2.03e-05  -8.5 2.77e-02  -4.0 1.00e+00 1.00e+00h  1
  33  7.8633931e-01 3.05e-06 1.21e-05 -10.1 1.21e-01    -  1.00e+00 1.00e+00h  1
  34  7.8634017e-01 4.56e-07 4.39e-06 -10.3 1.75e-02  -4.5 1.00e+00 1.00e+00h  1
  35  7.8633999e-01 9.82e-07 6.08e-06 -11.0 1.21e-01    -  1.00e+00 1.00e+00h  1
  36  7.8634014e-01 6.69e-08 6.72e-07 -11.0 4.89e-02    -  1.00e+00 1.00e+00h  1
  37  7.8634018e-01 5.20e-10 2.40e-07 -11.0 2.88e-03    -  1.00e+00 1.00e+00h  1
  38  7.8634017e-01 1.68e-09 1.42e-07 -11.0 3.05e-03    -  1.00e+00 1.00e+00h  1
  39  7.8634018e-01 1.20e-09 2.97e-07 -11.0 3.04e-03    -  1.00e+00 1.00e+00h  1
iter    objective    inf_pr   inf_du lg(mu)  ||d||  lg(rg) alpha_du alpha_pr  ls
  40  7.8634018e-01 4.64e-10 1.89e-08 -11.0 5.34e-04  -5.0 1.00e+00 1.00e+00h  1
  41  7.8634018e-01 2.74e-11 1.55e-08 -11.0 1.12e-03    -  1.00e+00 1.00e+00h  1
  42  7.8634018e-01 1.12e-12 7.50e-09 -11.0 1.55e-04    -  1.00e+00 1.00e+00h  1

Number of Iterations....: 42

                                   (scaled)                 (unscaled)
Objective...............:   7.8634017655654986e-01    7.8634017655654986e-01
Dual infeasibility......:   7.5042339176263857e-09    7.5042339176263857e-09
Constraint violation....:   1.1226901115749007e-12    1.1226901115749007e-12
Variable bound violation:   2.7643414668432342e-08    2.7643414668432342e-08
Complementarity.........:   1.0000000856869884e-11    1.0000000856869884e-11
Overall NLP error.......:   7.5042339176263857e-09    7.5042339176263857e-09


Number of objective function evaluations             = 43
Number of objective gradient evaluations             = 43
Number of equality constraint evaluations            = 43
Number of inequality constraint evaluations          = 43
Number of equality constraint Jacobian evaluations   = 43
Number of inequality constraint Jacobian evaluations = 43
Number of Lagrangian Hessian evaluations             = 0
Total seconds in IPOPT                               = 11.126

EXIT: Optimal Solution Found.
